n = 19;
lu = [|128, 206
      |8, 15
      |-77, 359
      |-254, -152
      |-173, -125
      |-284, -168
      |-137, -126
      |-216, 50
      |-310, -215
      |-81, 31
      |169, 219
      |-290, -62
      |165, 185
      |-75, 114
      |-145, 300
      |211, 241
      |-193, 328
      |33, 167
      |-79, 218|];
